c Sudoku solution
p cnf 729 0
146 0
214 0
258 0
297 0
317 0
382 0
396 0
527 0
554 0
566 0
583 0
618 0
631 0
657 0
167 0
685 0
694 0
738 0
765 0
771 0
825 0
888 0
893 0
911 0
963 0
948 0
468 0
975 0
195 0
598 0
541 0
491 0
987 0
747 0
837 0
477 0
439 0
424 0
486 0
626 0
413 0
643 0
669 0
579 0
672 0
723 0
784 0
876 0
515 0
532 0
716 0
956 0
934 0
236 0
335 0
133 0
245 0
273 0
353 0
442 0
455 0
174 0
378 0
128 0
112 0
262 0
819 0
922 0
844 0
759 0
792 0
999 0
349 0
364 0
151 0
189 0
281 0
229 0
321 0
852 0
861 0
